NAME : mtspf.pid5346.gtsp.133517866.tour
COMMENT : Length = 133517866
COMMENT : Found by LKH [Keld Helsgaun] Fri Jan 24 12:54:25 2025
TYPE : TOUR
DIMENSION : 85
TOUR_SECTION
1
57
54
55
56
60
61
58
59
17
14
15
16
85
82
83
84
80
81
78
79
2
65
62
63
64
47
48
49
46
5
27
28
29
26
23
24
25
22
4
11
12
13
10
70
71
72
73
43
44
45
42
3
34
35
36
37
67
68
69
66
39
40
41
38
75
76
77
74
18
19
20
21
33
30
31
32
9
6
7
8
50
51
52
53
-1
EOF
